c File: flat50_3_0.col
c
c SOURCE: Joseph Culberson (joe@cs.ualberta.ca)
c DESCRIPTION: Quasi-random coloring problem
c              generated with flatness = 0
c                             probability = 0.139
c                             known coloring = 3
c                             random seed = 1721
c              Creation Date:  Tue Jun  9 12:16:14 1998
c Maximum degree = 8 Minimum degree = 1
c p edge 50 115
c cnf created by edge2cnf
p cnf 150 545
-1 -2 0
-1 -3 0
-2 -3 0
1 2 3 0
-4 -5 0
-4 -6 0
-5 -6 0
4 5 6 0
-7 -8 0
-7 -9 0
-8 -9 0
7 8 9 0
-10 -11 0
-10 -12 0
-11 -12 0
10 11 12 0
-13 -14 0
-13 -15 0
-14 -15 0
13 14 15 0
-16 -17 0
-16 -18 0
-17 -18 0
16 17 18 0
-19 -20 0
-19 -21 0
-20 -21 0
19 20 21 0
-22 -23 0
-22 -24 0
-23 -24 0
22 23 24 0
-25 -26 0
-25 -27 0
-26 -27 0
25 26 27 0
-28 -29 0
-28 -30 0
-29 -30 0
28 29 30 0
-31 -32 0
-31 -33 0
-32 -33 0
31 32 33 0
-34 -35 0
-34 -36 0
-35 -36 0
34 35 36 0
-37 -38 0
-37 -39 0
-38 -39 0
37 38 39 0
-40 -41 0
-40 -42 0
-41 -42 0
40 41 42 0
-43 -44 0
-43 -45 0
-44 -45 0
43 44 45 0
-46 -47 0
-46 -48 0
-47 -48 0
46 47 48 0
-49 -50 0
-49 -51 0
-50 -51 0
49 50 51 0
-52 -53 0
-52 -54 0
-53 -54 0
52 53 54 0
-55 -56 0
-55 -57 0
-56 -57 0
55 56 57 0
-58 -59 0
-58 -60 0
-59 -60 0
58 59 60 0
-61 -62 0
-61 -63 0
-62 -63 0
61 62 63 0
-64 -65 0
-64 -66 0
-65 -66 0
64 65 66 0
-67 -68 0
-67 -69 0
-68 -69 0
67 68 69 0
-70 -71 0
-70 -72 0
-71 -72 0
70 71 72 0
-73 -74 0
-73 -75 0
-74 -75 0
73 74 75 0
-76 -77 0
-76 -78 0
-77 -78 0
76 77 78 0
-79 -80 0
-79 -81 0
-80 -81 0
79 80 81 0
-82 -83 0
-82 -84 0
-83 -84 0
82 83 84 0
-85 -86 0
-85 -87 0
-86 -87 0
85 86 87 0
-88 -89 0
-88 -90 0
-89 -90 0
88 89 90 0
-91 -92 0
-91 -93 0
-92 -93 0
91 92 93 0
-94 -95 0
-94 -96 0
-95 -96 0
94 95 96 0
-97 -98 0
-97 -99 0
-98 -99 0
97 98 99 0
-100 -101 0
-100 -102 0
-101 -102 0
100 101 102 0
-103 -104 0
-103 -105 0
-104 -105 0
103 104 105 0
-106 -107 0
-106 -108 0
-107 -108 0
106 107 108 0
-109 -110 0
-109 -111 0
-110 -111 0
109 110 111 0
-112 -113 0
-112 -114 0
-113 -114 0
112 113 114 0
-115 -116 0
-115 -117 0
-116 -117 0
115 116 117 0
-118 -119 0
-118 -120 0
-119 -120 0
118 119 120 0
-121 -122 0
-121 -123 0
-122 -123 0
121 122 123 0
-124 -125 0
-124 -126 0
-125 -126 0
124 125 126 0
-127 -128 0
-127 -129 0
-128 -129 0
127 128 129 0
-130 -131 0
-130 -132 0
-131 -132 0
130 131 132 0
-133 -134 0
-133 -135 0
-134 -135 0
133 134 135 0
-136 -137 0
-136 -138 0
-137 -138 0
136 137 138 0
-139 -140 0
-139 -141 0
-140 -141 0
139 140 141 0
-142 -143 0
-142 -144 0
-143 -144 0
142 143 144 0
-145 -146 0
-145 -147 0
-146 -147 0
145 146 147 0
-148 -149 0
-148 -150 0
-149 -150 0
148 149 150 0
-61 -1 0
-62 -2 0
-63 -3 0
-82 -1 0
-83 -2 0
-84 -3 0
-88 -1 0
-89 -2 0
-90 -3 0
-124 -1 0
-125 -2 0
-126 -3 0
-64 -4 0
-65 -5 0
-66 -6 0
-115 -4 0
-116 -5 0
-117 -6 0
-118 -4 0
-119 -5 0
-120 -6 0
-127 -4 0
-128 -5 0
-129 -6 0
-142 -4 0
-143 -5 0
-144 -6 0
-55 -7 0
-56 -8 0
-57 -9 0
-82 -7 0
-83 -8 0
-84 -9 0
-109 -7 0
-110 -8 0
-111 -9 0
-115 -7 0
-116 -8 0
-117 -9 0
-139 -7 0
-140 -8 0
-141 -9 0
-145 -7 0
-146 -8 0
-147 -9 0
-52 -10 0
-53 -11 0
-54 -12 0
-124 -10 0
-125 -11 0
-126 -12 0
-52 -13 0
-53 -14 0
-54 -15 0
-79 -13 0
-80 -14 0
-81 -15 0
-82 -13 0
-83 -14 0
-84 -15 0
-97 -13 0
-98 -14 0
-99 -15 0
-112 -13 0
-113 -14 0
-114 -15 0
-115 -13 0
-116 -14 0
-117 -15 0
-127 -13 0
-128 -14 0
-129 -15 0
-145 -13 0
-146 -14 0
-147 -15 0
-79 -16 0
-80 -17 0
-81 -18 0
-85 -16 0
-86 -17 0
-87 -18 0
-94 -16 0
-95 -17 0
-96 -18 0
-106 -16 0
-107 -17 0
-108 -18 0
-133 -16 0
-134 -17 0
-135 -18 0
-145 -16 0
-146 -17 0
-147 -18 0
-91 -19 0
-92 -20 0
-93 -21 0
-130 -19 0
-131 -20 0
-132 -21 0
-133 -19 0
-134 -20 0
-135 -21 0
-136 -19 0
-137 -20 0
-138 -21 0
-112 -22 0
-113 -23 0
-114 -24 0
-52 -25 0
-53 -26 0
-54 -27 0
-55 -25 0
-56 -26 0
-57 -27 0
-70 -25 0
-71 -26 0
-72 -27 0
-100 -25 0
-101 -26 0
-102 -27 0
-115 -25 0
-116 -26 0
-117 -27 0
-127 -25 0
-128 -26 0
-129 -27 0
-145 -25 0
-146 -26 0
-147 -27 0
-58 -28 0
-59 -29 0
-60 -30 0
-85 -28 0
-86 -29 0
-87 -30 0
-100 -28 0
-101 -29 0
-102 -30 0
-121 -28 0
-122 -29 0
-123 -30 0
-130 -28 0
-131 -29 0
-132 -30 0
-85 -31 0
-86 -32 0
-87 -33 0
-106 -31 0
-107 -32 0
-108 -33 0
-118 -31 0
-119 -32 0
-120 -33 0
-55 -34 0
-56 -35 0
-57 -36 0
-79 -34 0
-80 -35 0
-81 -36 0
-82 -34 0
-83 -35 0
-84 -36 0
-97 -34 0
-98 -35 0
-99 -36 0
-133 -34 0
-134 -35 0
-135 -36 0
-139 -34 0
-140 -35 0
-141 -36 0
-70 -37 0
-71 -38 0
-72 -39 0
-100 -37 0
-101 -38 0
-102 -39 0
-112 -37 0
-113 -38 0
-114 -39 0
-52 -40 0
-53 -41 0
-54 -42 0
-67 -40 0
-68 -41 0
-69 -42 0
-94 -40 0
-95 -41 0
-96 -42 0
-109 -40 0
-110 -41 0
-111 -42 0
-130 -40 0
-131 -41 0
-132 -42 0
-61 -43 0
-62 -44 0
-63 -45 0
-85 -43 0
-86 -44 0
-87 -45 0
-100 -43 0
-101 -44 0
-102 -45 0
-127 -43 0
-128 -44 0
-129 -45 0
-97 -46 0
-98 -47 0
-99 -48 0
-103 -46 0
-104 -47 0
-105 -48 0
-118 -46 0
-119 -47 0
-120 -48 0
-136 -46 0
-137 -47 0
-138 -48 0
-58 -49 0
-59 -50 0
-60 -51 0
-64 -49 0
-65 -50 0
-66 -51 0
-76 -49 0
-77 -50 0
-78 -51 0
-88 -49 0
-89 -50 0
-90 -51 0
-112 -49 0
-113 -50 0
-114 -51 0
-112 -52 0
-113 -53 0
-114 -54 0
-124 -55 0
-125 -56 0
-126 -57 0
-127 -55 0
-128 -56 0
-129 -57 0
-130 -55 0
-131 -56 0
-132 -57 0
-133 -55 0
-134 -56 0
-135 -57 0
-145 -58 0
-146 -59 0
-147 -60 0
-109 -61 0
-110 -62 0
-111 -63 0
-130 -61 0
-131 -62 0
-132 -63 0
-142 -61 0
-143 -62 0
-144 -63 0
-103 -64 0
-104 -65 0
-105 -66 0
-133 -64 0
-134 -65 0
-135 -66 0
-145 -64 0
-146 -65 0
-147 -66 0
-148 -64 0
-149 -65 0
-150 -66 0
-103 -70 0
-104 -71 0
-105 -72 0
-115 -73 0
-116 -74 0
-117 -75 0
-121 -73 0
-122 -74 0
-123 -75 0
-103 -76 0
-104 -77 0
-105 -78 0
-148 -76 0
-149 -77 0
-150 -78 0
-115 -79 0
-116 -80 0
-117 -81 0
-136 -79 0
-137 -80 0
-138 -81 0
-103 -82 0
-104 -83 0
-105 -84 0
-142 -82 0
-143 -83 0
-144 -84 0
-148 -85 0
-149 -86 0
-150 -87 0
-124 -88 0
-125 -89 0
-126 -90 0
-127 -88 0
-128 -89 0
-129 -90 0
-130 -91 0
-131 -92 0
-132 -93 0
-133 -91 0
-134 -92 0
-135 -93 0
-145 -91 0
-146 -92 0
-147 -93 0
-148 -91 0
-149 -92 0
-150 -93 0
-109 -94 0
-110 -95 0
-111 -96 0
-136 -94 0
-137 -95 0
-138 -96 0
-118 -97 0
-119 -98 0
-120 -99 0
-127 -97 0
-128 -98 0
-129 -99 0
-133 -97 0
-134 -98 0
-135 -99 0
-130 -100 0
-131 -101 0
-132 -102 0
-142 -100 0
-143 -101 0
-144 -102 0
-145 -100 0
-146 -101 0
-147 -102 0
